MARKOV
232
 2 2 2 2 2 2 2 2 2 2 2 2 2 2 2 2 2 2 2 2 2 2 2 2 2 2 2 2 2 2 2 2 2 2 2 2 2 2 2 2 2 2 2 2 2 2 2 2 2 2 2 2 2 2 2 2 2 2 2 2 2 2 2 2 2 2 2 2 2 2 2 2 2 2 2 2 2 2 2 2 2 2 2 2 2 2 2 2 2 2 2 2 2 2 2 2 2 2 2 2 2 2 2 2 2 2 2 2 2 2 2 2 2 2 2 2 2 2 2 2 2 2 2 2 2 2 2 2 2 2 2 2 2 2 2 2 2 2 2 2 2 2 2 2 2 2 2 2 2 2 2 2 2 2 2 2 2 2 2 2 2 2 2 2 2 2 2 2 2 2 2 2 2 2 2 2 2 2 2 2 2 2 2 2 2 2 2 2 2 2 2 2 2 2 2 2 2 2 2 2 2 2 2 2 2 2 2 2 2 2 2 2 2 2 2 2 2 2 2 2 2 2 2 2 2 2 2 2 2 2 2 2
860
1	0 
1	1 
1	2 
1	3 
1	4 
1	5 
1	6 
1	7 
1	8 
1	9 
1	10 
1	11 
1	12 
1	13 
1	14 
1	15 
1	16 
1	17 
1	18 
1	19 
1	20 
1	21 
1	22 
1	23 
1	24 
1	25 
1	26 
1	27 
1	28 
1	29 
1	30 
1	31 
1	32 
1	33 
1	34 
1	35 
1	36 
1	37 
1	38 
1	39 
1	40 
1	41 
1	42 
1	43 
1	44 
1	45 
1	46 
1	47 
1	48 
1	49 
1	50 
1	51 
1	52 
1	53 
1	54 
1	55 
1	56 
1	57 
1	58 
1	59 
1	60 
1	61 
1	62 
1	63 
1	64 
1	65 
1	66 
1	67 
1	68 
1	69 
1	70 
1	71 
1	72 
1	73 
1	74 
1	75 
1	76 
1	77 
1	78 
1	79 
1	80 
1	81 
1	82 
1	83 
1	84 
1	85 
1	86 
1	87 
1	88 
1	89 
1	90 
1	91 
1	92 
1	93 
1	94 
1	95 
1	96 
1	97 
1	98 
1	99 
1	100 
1	101 
1	102 
1	103 
1	104 
1	105 
1	106 
1	107 
1	108 
1	109 
1	110 
1	111 
1	112 
1	113 
1	114 
1	115 
1	116 
1	117 
1	118 
1	119 
1	120 
1	121 
1	122 
1	123 
1	124 
1	125 
1	126 
1	127 
1	128 
1	129 
1	130 
1	131 
1	132 
1	133 
1	134 
1	135 
1	136 
1	137 
1	138 
1	139 
1	140 
1	141 
1	142 
1	143 
1	144 
1	145 
1	146 
1	147 
1	148 
1	149 
1	150 
1	151 
1	152 
1	153 
1	154 
1	155 
1	156 
1	157 
1	158 
1	159 
1	160 
1	161 
1	162 
1	163 
1	164 
1	165 
1	166 
1	167 
1	168 
1	169 
1	170 
1	171 
1	172 
1	173 
1	174 
1	175 
1	176 
1	177 
1	178 
1	179 
1	180 
1	181 
1	182 
1	183 
1	184 
1	185 
1	186 
1	187 
1	188 
1	189 
1	190 
1	191 
1	192 
1	193 
1	194 
1	195 
1	196 
1	197 
1	198 
1	199 
1	200 
1	201 
1	202 
1	203 
1	204 
1	205 
1	206 
1	207 
1	208 
1	209 
1	210 
1	211 
1	212 
1	213 
1	214 
1	215 
1	216 
1	217 
1	218 
1	219 
1	220 
1	221 
1	222 
1	223 
1	224 
1	225 
1	226 
1	227 
1	228 
1	229 
1	230 
1	231 
2	1 2 
2	1 140 
2	1 141 
2	1 142 
2	2 51 
2	2 142 
2	3 4 
2	3 5 
2	3 6 
2	3 7 
2	3 77 
2	4 5 
2	4 6 
2	4 9 
2	4 10 
2	4 195 
2	4 196 
2	5 7 
2	5 10 
2	6 14 
2	6 16 
2	6 77 
2	6 196 
2	7 77 
2	7 78 
2	8 9 
2	8 10 
2	8 180 
2	9 10 
2	9 180 
2	9 181 
2	9 195 
2	11 13 
2	11 15 
2	11 16 
2	11 17 
2	11 79 
2	11 80 
2	11 140 
2	12 13 
2	12 17 
2	12 36 
2	12 41 
2	12 143 
2	12 144 
2	13 15 
2	13 17 
2	13 36 
2	13 37 
2	14 15 
2	14 16 
2	14 196 
2	14 209 
2	14 211 
2	15 16 
2	15 37 
2	15 211 
2	16 77 
2	16 79 
2	17 140 
2	17 143 
2	18 19 
2	18 131 
2	19 65 
2	19 66 
2	19 131 
2	20 21 
2	20 22 
2	20 24 
2	20 160 
2	20 161 
2	21 22 
2	21 23 
2	21 160 
2	21 197 
2	22 23 
2	22 24 
2	22 28 
2	22 30 
2	23 30 
2	23 31 
2	23 197 
2	23 198 
2	23 199 
2	24 26 
2	24 28 
2	25 27 
2	25 28 
2	25 29 
2	25 178 
2	25 200 
2	26 28 
2	26 29 
2	27 28 
2	27 30 
2	27 31 
2	27 200 
2	28 29 
2	28 30 
2	30 31 
2	31 89 
2	31 199 
2	31 200 
2	32 34 
2	32 132 
2	32 153 
2	32 155 
2	33 34 
2	33 60 
2	33 169 
2	33 171 
2	33 172 
2	34 60 
2	34 132 
2	34 155 
2	34 171 
2	35 39 
2	35 40 
2	35 203 
2	35 205 
2	35 228 
2	36 37 
2	36 40 
2	36 41 
2	36 205 
2	37 38 
2	37 40 
2	37 201 
2	37 211 
2	38 39 
2	38 40 
2	38 201 
2	38 202 
2	39 40 
2	39 202 
2	39 228 
2	39 230 
2	40 205 
2	41 124 
2	41 144 
2	41 205 
2	41 206 
2	42 43 
2	42 44 
2	42 45 
2	42 113 
2	42 148 
2	42 149 
2	43 45 
2	43 54 
2	43 129 
2	43 130 
2	43 149 
2	43 151 
2	44 45 
2	44 69 
2	44 70 
2	44 110 
2	44 113 
2	45 70 
2	45 128 
2	45 130 
2	46 49 
2	46 50 
2	46 90 
2	46 91 
2	46 96 
2	46 99 
2	47 48 
2	47 50 
2	47 81 
2	47 83 
2	47 86 
2	47 95 
2	48 49 
2	48 50 
2	48 83 
2	48 175 
2	48 177 
2	49 50 
2	49 90 
2	49 92 
2	50 95 
2	50 99 
2	51 52 
2	51 53 
2	51 123 
2	51 142 
2	52 53 
2	52 111 
2	52 114 
2	53 111 
2	53 112 
2	53 123 
2	53 125 
2	54 55 
2	54 56 
2	54 88 
2	54 127 
2	54 129 
2	54 151 
2	55 56 
2	55 150 
2	55 151 
2	55 173 
2	55 174 
2	56 88 
2	56 135 
2	56 174 
2	57 59 
2	57 60 
2	57 155 
2	57 214 
2	57 215 
2	57 216 
2	58 59 
2	58 60 
2	58 146 
2	58 157 
2	58 158 
2	58 169 
2	58 170 
2	59 60 
2	59 156 
2	59 157 
2	59 214 
2	60 155 
2	61 63 
2	61 64 
2	61 145 
2	61 204 
2	62 63 
2	62 64 
2	62 126 
2	62 206 
2	62 207 
2	63 64 
2	63 207 
2	64 203 
2	64 204 
2	64 205 
2	64 206 
2	65 66 
2	65 67 
2	65 68 
2	66 68 
2	66 131 
2	66 132 
2	66 171 
2	67 68 
2	67 87 
2	67 134 
2	68 134 
2	68 171 
2	69 70 
2	69 71 
2	69 72 
2	69 110 
2	69 114 
2	70 71 
2	70 128 
2	71 72 
2	71 128 
2	73 74 
2	73 76 
2	73 106 
2	73 121 
2	73 208 
2	74 75 
2	74 106 
2	74 109 
2	74 208 
2	74 209 
2	75 109 
2	75 201 
2	75 209 
2	75 211 
2	76 121 
2	76 212 
2	77 78 
2	77 79 
2	77 80 
2	78 80 
2	78 141 
2	79 80 
2	80 140 
2	80 141 
2	81 84 
2	81 85 
2	81 86 
2	81 95 
2	81 97 
2	82 84 
2	82 85 
2	82 103 
2	82 104 
2	83 86 
2	83 175 
2	83 179 
2	84 85 
2	84 97 
2	84 103 
2	84 227 
2	85 86 
2	87 88 
2	87 134 
2	87 135 
2	88 127 
2	88 135 
2	89 92 
2	89 175 
2	89 176 
2	89 177 
2	89 199 
2	89 200 
2	90 91 
2	90 92 
2	90 93 
2	90 94 
2	91 94 
2	91 96 
2	91 105 
2	91 107 
2	91 108 
2	91 115 
2	92 93 
2	92 177 
2	92 199 
2	93 94 
2	93 198 
2	93 199 
2	94 115 
2	94 116 
2	94 198 
2	95 97 
2	95 98 
2	95 99 
2	96 99 
2	96 100 
2	96 108 
2	96 202 
2	96 230 
2	97 98 
2	97 227 
2	98 99 
2	98 100 
2	98 227 
2	98 229 
2	99 100 
2	100 229 
2	100 230 
2	100 231 
2	101 102 
2	101 103 
2	101 136 
2	101 137 
2	101 227 
2	101 229 
2	102 136 
2	102 138 
2	102 228 
2	102 229 
2	102 230 
2	102 231 
2	103 104 
2	103 137 
2	103 217 
2	103 227 
2	104 217 
2	105 106 
2	105 107 
2	105 108 
2	105 109 
2	106 107 
2	106 109 
2	106 115 
2	106 117 
2	106 121 
2	107 115 
2	108 109 
2	108 202 
2	109 201 
2	109 202 
2	110 111 
2	110 113 
2	110 114 
2	111 112 
2	111 113 
2	111 114 
2	112 113 
2	112 125 
2	112 147 
2	112 148 
2	113 148 
2	115 116 
2	115 117 
2	116 117 
2	116 118 
2	116 119 
2	116 198 
2	117 119 
2	117 121 
2	118 119 
2	118 120 
2	118 122 
2	118 197 
2	118 198 
2	119 120 
2	119 121 
2	120 121 
2	120 122 
2	120 220 
2	120 221 
2	121 212 
2	121 221 
2	121 224 
2	122 160 
2	122 163 
2	122 167 
2	122 197 
2	122 220 
2	123 124 
2	123 125 
2	123 142 
2	123 144 
2	124 125 
2	124 126 
2	124 144 
2	124 206 
2	125 126 
2	125 147 
2	126 147 
2	126 152 
2	126 206 
2	126 207 
2	127 129 
2	128 130 
2	129 130 
2	131 132 
2	131 133 
2	132 133 
2	132 153 
2	132 171 
2	133 153 
2	134 135 
2	134 171 
2	134 172 
2	135 172 
2	135 174 
2	136 137 
2	136 138 
2	136 156 
2	136 214 
2	137 214 
2	137 216 
2	137 217 
2	138 139 
2	138 156 
2	138 157 
2	138 159 
2	138 228 
2	139 159 
2	139 203 
2	139 228 
2	140 141 
2	140 142 
2	140 143 
2	142 143 
2	142 144 
2	143 144 
2	145 146 
2	145 150 
2	145 152 
2	145 173 
2	145 204 
2	145 207 
2	146 158 
2	146 170 
2	146 173 
2	146 204 
2	147 148 
2	147 149 
2	147 152 
2	148 149 
2	149 150 
2	149 151 
2	149 152 
2	150 151 
2	150 152 
2	150 173 
2	152 207 
2	153 154 
2	153 155 
2	154 155 
2	154 215 
2	155 215 
2	156 157 
2	156 214 
2	157 158 
2	157 159 
2	158 159 
2	158 204 
2	159 203 
2	159 204 
2	160 161 
2	160 162 
2	160 166 
2	160 167 
2	160 197 
2	161 162 
2	162 166 
2	163 167 
2	163 168 
2	163 219 
2	163 220 
2	164 165 
2	164 166 
2	164 167 
2	164 168 
2	165 168 
2	165 218 
2	165 219 
2	166 167 
2	167 168 
2	168 219 
2	169 170 
2	169 172 
2	170 172 
2	170 173 
2	170 174 
2	171 172 
2	172 174 
2	173 174 
2	175 176 
2	175 177 
2	175 179 
2	176 178 
2	176 179 
2	176 200 
2	178 179 
2	178 200 
2	180 181 
2	180 182 
2	180 184 
2	181 182 
2	181 195 
2	181 210 
2	181 223 
2	181 225 
2	182 183 
2	182 184 
2	182 185 
2	182 186 
2	182 223 
2	183 185 
2	183 186 
2	183 187 
2	183 188 
2	183 192 
2	184 186 
2	185 192 
2	185 223 
2	185 226 
2	186 188 
2	187 188 
2	187 189 
2	187 190 
2	187 192 
2	188 189 
2	188 191 
2	189 190 
2	189 191 
2	190 192 
2	190 194 
2	192 193 
2	192 226 
2	193 194 
2	193 222 
2	194 218 
2	194 222 
2	195 196 
2	195 210 
2	196 208 
2	196 209 
2	196 210 
2	197 198 
2	198 199 
2	201 202 
2	201 211 
2	202 230 
2	203 204 
2	203 205 
2	203 228 
2	205 206 
2	208 209 
2	208 210 
2	208 212 
2	209 211 
2	210 212 
2	210 225 
2	212 224 
2	212 225 
2	213 215 
2	213 216 
2	213 217 
2	214 216 
2	215 216 
2	216 217 
2	218 219 
2	218 222 
2	219 220 
2	219 222 
2	220 221 
2	220 222 
2	221 222 
2	221 224 
2	221 226 
2	222 226 
2	223 225 
2	223 226 
2	224 225 
2	224 226 
2	225 226 
2	227 229 
2	228 230 
2	229 231 
2	230 231 
0	

2
 0.252912 1
2
 0.455492 1
2
 0.992719 1
2
 1 0.230249
2
 1 0.124576
2
 1 0.145874
2
 1 0.392203
2
 1 0.51061
2
 1 0.478469
2
 1 0.462035
2
 1 0.351801
2
 1 0.854739
2
 0.070821 1
2
 0.0465991 1
2
 1 0.547028
2
 1 0.724283
2
 1 0.465479
2
 0.338438 1
2
 1 0.659833
2
 1 0.749424
2
 1 0.0388182
2
 1 0.116915
2
 1 0.053369
2
 1 0.117014
2
 1 0.0411006
2
 1 0.0225307
2
 1 0.0493478
2
 1 0.122134
2
 1 0.0654295
2
 1 0.0208187
2
 1 0.0424156
2
 1 0.0516281
2
 1 0.793254
2
 0.555661 1
2
 0.93523 1
2
 0.149771 1
2
 0.167034 1
2
 0.0884156 1
2
 0.125732 1
2
 0.161017 1
2
 0.488267 1
2
 0.0952628 1
2
 0.936209 1
2
 0.685615 1
2
 1 0.990572
2
 0.559905 1
2
 0.773969 1
2
 0.873825 1
2
 0.14666 1
2
 0.0896338 1
2
 0.474533 1
2
 0.697096 1
2
 0.832542 1
2
 0.805394 1
2
 0.395485 1
2
 0.215148 1
2
 0.480243 1
2
 1 0.60752
2
 0.258724 1
2
 0.443274 1
2
 0.967545 1
2
 0.0535229 1
2
 0.279734 1
2
 0.336157 1
2
 0.119129 1
2
 0.66732 1
2
 1 0.736558
2
 1 0.457357
2
 1 0.784144
2
 1 0.550051
2
 1 0.615952
2
 1 0.330907
2
 1 0.844276
2
 0.135168 1
2
 0.230097 1
2
 0.257524 1
2
 0.08471 1
2
 1 0.817115
2
 0.478229 1
2
 1 0.708896
2
 0.717262 1
2
 0.225035 1
2
 0.559281 1
2
 1 0.43823
2
 0.262717 1
2
 1 0.335417
2
 1 0.845544
2
 0.914116 1
2
 1 0.601082
2
 1 0.706515
2
 0.629689 1
2
 0.130205 1
2
 0.147255 1
2
 0.353563 1
2
 0.262126 1
2
 0.171296 1
2
 0.113958 1
2
 0.189014 1
2
 0.102353 1
2
 0.0859998 1
2
 0.142825 1
2
 0.621543 1
2
 0.219794 1
2
 0.406572 1
2
 1 0.906089
2
 0.0524391 1
2
 0.163105 1
2
 0.0495034 1
2
 0.0805911 1
2
 0.130744 1
2
 0.823571 1
2
 0.391688 1
2
 0.872775 1
2
 0.674528 1
2
 0.892024 1
2
 0.0166876 1
2
 0.0512293 1
2
 0.295108 1
2
 0.102297 1
2
 0.367442 1
2
 0.0290384 1
2
 0.0729485 1
2
 0.298241 1
2
 0.338928 1
2
 0.0520101 1
2
 0.163125 1
2
 0.0878571 1
2
 1 0.94647
2
 1 0.504246
2
 1 0.487424
2
 1 0.640269
2
 1 0.506277
2
 1 0.663934
2
 1 0.232426
2
 1 0.859154
2
 1 0.98148
2
 0.654774 1
2
 0.370175 1
2
 0.62603 1
2
 0.441712 1
2
 0.24655 1
2
 0.165731 1
2
 0.09408 1
2
 0.205185 1
2
 0.0265944 1
2
 0.388152 1
2
 0.489762 1
2
 0.152778 1
2
 0.844478 1
2
 0.889198 1
2
 0.167743 1
2
 0.485508 1
2
 0.131903 1
2
 1 0.568404
2
 1 0.344173
2
 0.763839 1
2
 0.332919 1
2
 0.33941 1
2
 0.203457 1
2
 0.235607 1
2
 1 0.175091
2
 1 0.0553588
2
 1 0.0454383
2
 0.884745 1
2
 1 0.090857
2
 1 0.048243
2
 1 0.0423869
2
 1 0.552183
2
 1 0.133515
2
 0.825815 1
2
 0.834567 1
2
 1 0.518377
2
 0.730929 1
2
 0.196038 1
2
 1 0.916462
2
 0.336857 1
2
 1 0.517103
2
 0.290298 1
2
 1 0.35947
2
 1 0.975736
2
 1 0.620215
2
 0.656981 1
2
 1 0.119055
2
 1 0.0712991
2
 1 0.0743457
2
 1 0.0642925
2
 1 0.0712518
2
 1 0.0607677
2
 1 0.0489402
2
 1 0.0382063
2
 1 0.0738874
2
 1 0.0714554
2
 1 0.0759364
2
 1 0.0611377
2
 1 0.0776972
2
 0.783143 1
2
 1 0.399398
2
 1 0.227162
2
 1 0.270425
2
 1 0.266061
2
 1 0.29338
2
 0.245697 1
2
 0.0945778 1
2
 0.0603189 1
2
 0.0487341 1
2
 0.0348728 1
2
 0.0291836 1
2
 0.291337 1
2
 0.631537 1
2
 1 0.670063
2
 0.219463 1
2
 0.112733 1
2
 0.0529548 1
2
 1 0.918618
2
 0.277566 1
2
 1 0.875666
2
 0.343187 1
2
 1 0.485157
2
 1 0.0874939
2
 1 0.140736
2
 1 0.950346
2
 1 0.252531
2
 1 0.121956
2
 1 0.201765
2
 1 0.775793
2
 0.719853 1
2
 1 0.109
2
 0.34738 1
2
 0.0791473 1
2
 0.301337 1
2
 0.176537 1
2
 0.103801 1
4
 1 0.343187 0.343187 0.977857
4
 1 0.337292 0.337292 0.98468
4
 1 0.341174 0.341174 0.983134
4
 1 0.339127 0.339127 0.980054
4
 1 0.344851 0.344851 0.973045
4
 1 0.340133 0.340133 0.977566
4
 0.985972 0.317086 0.317086 1
4
 0.989814 0.323132 0.323132 1
4
 0.988591 0.31807 0.31807 1
4
 0.994078 0.327126 0.327126 1
4
 0.993779 0.324146 0.324146 1
4
 0.985273 0.318396 0.318396 1
4
 0.984056 0.313408 0.313408 1
4
 0.979287 0.311938 0.311938 1
4
 0.98325 0.317573 0.317573 1
4
 0.978481 0.308443 0.308443 1
4
 0.98174 0.30975 0.30975 1
4
 0.993373 0.328477 0.328477 1
4
 0.987081 0.323627 0.323627 1
4
 0.987111 0.312062 0.312062 1
4
 0.989587 0.315436 0.315436 1
4
 0.991848 0.320386 0.320386 1
4
 0.984348 0.310711 0.310711 1
4
 0.997353 0.329508 0.329508 1
4
 1 0.334797 0.334797 0.99839
4
 0.977936 0.314268 0.314268 1
4
 0.981893 0.319944 0.319944 1
4
 0.975818 0.312816 0.312816 1
4
 0.981085 0.317064 0.317064 1
4
 0.975015 0.31 0.31 1
4
 0.973739 0.306315 0.306315 1
4
 0.976326 0.307949 0.307949 1
4
 1 0.319427 0.319427 0.998287
4
 0.998577 0.318765 0.318765 1
4
 0.997347 0.320116 0.320116 1
4
 1 0.323047 0.323047 0.995528
4
 1 0.323951 0.323951 0.999404
4
 1 0.327676 0.327676 0.99586
4
 1 0.32774 0.32774 0.993407
4
 1 0.318616 0.318616 0.99423
4
 1 0.322227 0.322227 0.991482
4
 1 0.316562 0.316562 0.993748
4
 1 0.319477 0.319477 0.989929
4
 1 0.325318 0.325318 0.988373
4
 1 0.324849 0.324849 0.98616
4
 0.998089 0.315021 0.315021 1
4
 1 0.319409 0.319409 0.996014
4
 1 0.313794 0.313794 0.99829
4
 0.997677 0.311514 0.311514 1
4
 0.99125 0.311788 0.311788 1
4
 0.99003 0.31311 0.31311 1
4
 0.984788 0.30842 0.30842 1
4
 0.985376 0.305844 0.305844 1
4
 0.987957 0.307039 0.307039 1
4
 0.993736 0.31516 0.31516 1
4
 0.994551 0.310336 0.310336 1
4
 0.991656 0.309049 0.309049 1
4
 0.99478 0.321462 0.321462 1
4
 0.995746 0.320478 0.320478 1
4
 1 0.327721 0.327721 0.991146
4
 1 0.326128 0.326128 0.990147
4
 1 0.288384 0.288384 0.968906
4
 1 0.284723 0.284723 0.972681
4
 1 0.2949 0.2949 0.965937
4
 1 0.291389 0.291389 0.969447
4
 1 0.287916 0.287916 0.971044
4
 0.934145 0.245411 0.245411 1
4
 0.931355 0.241541 0.241541 1
4
 0.926528 0.237351 0.237351 1
4
 0.932576 0.245537 0.245537 1
4
 0.928159 0.241101 0.241101 1
4
 0.936907 0.246784 0.246784 1
4
 0.941261 0.250811 0.250811 1
4
 0.938136 0.250866 0.250866 1
4
 0.942177 0.253967 0.253967 1
4
 0.938449 0.246855 0.246855 1
4
 0.929267 0.238678 0.238678 1
4
 0.931387 0.238678 0.238678 1
4
 0.93526 0.242405 0.242405 1
4
 0.939606 0.246361 0.246361 1
4
 0.943054 0.248925 0.248925 1
4
 0.943728 0.254041 0.254041 1
4
 0.946907 0.255481 0.255481 1
4
 0.945703 0.252241 0.252241 1
4
 0.923103 0.231978 0.231978 1
4
 0.92656 0.234537 0.234537 1
4
 0.932185 0.234314 0.234314 1
4
 0.928742 0.232604 0.232604 1
4
 0.924688 0.228094 0.228094 1
4
 0.93295 0.23279 0.23279 1
4
 0.933509 0.234468 0.234468 1
4
 0.925209 0.231977 0.231977 1
4
 0.92117 0.22748 0.22748 1
4
 0.932116 0.236262 0.236262 1
4
 0.935993 0.239951 0.239951 1
4
 0.939428 0.242448 0.242448 1
4
 0.936901 0.238155 0.238155 1
4
 0.92462 0.22999 0.22999 1
4
 0.932536 0.238199 0.238199 1
4
 0.93985 0.244437 0.244437 1
4
 0.945452 0.24753 0.24753 1
4
 0.945949 0.250271 0.250271 1
4
 0.940762 0.242607 0.242607 1
4
 1 0.288095 0.288095 0.982578
4
 1 0.287041 0.287041 0.980378
4
 1 0.282651 0.282651 0.985155
4
 1 0.284522 0.284522 0.986517
4
 1 0.292611 0.292611 0.980631
4
 1 0.293106 0.293106 0.982648
4
 1 0.297834 0.297834 0.978103
4
 1 0.295305 0.295305 0.976863
4
 1 0.29903 0.29903 0.975183
4
 1 0.290647 0.290647 0.983936
4
 1 0.289094 0.289094 0.979718
4
 1 0.286558 0.286558 0.985852
4
 1 0.292827 0.292827 0.978143
4
 0.994839 0.296908 0.296908 1
4
 0.997746 0.30215 0.30215 1
4
 1 0.302215 0.302215 0.997813
4
 1 0.304596 0.304596 0.998259
4
 0.998116 0.297742 0.297742 1
4
 0.998161 0.309657 0.309657 1
4
 0.999802 0.308372 0.308372 1
4
 1 0.314643 0.314643 0.993972
4
 1 0.310229 0.310229 0.996206
4
 0.99269 0.302857 0.302857 1
4
 0.995774 0.305608 0.305608 1
4
 0.990837 0.302206 0.302206 1
4
 0.991246 0.305608 0.305608 1
4
 0.991426 0.296368 0.296368 1
4
 0.994322 0.3016 0.3016 1
4
 0.989392 0.298244 0.298244 1
4
 0.988909 0.294741 0.294741 1
4
 0.994506 0.29906 0.29906 1
4
 0.989092 0.292258 0.292258 1
4
 0.994875 0.294697 0.294697 1
4
 0.991126 0.291066 0.291066 1
4
 1 0.306906 0.306906 0.998593
4
 1 0.321821 0.321821 0.984873
4
 1 0.322879 0.322879 0.986382
4
 1 0.313085 0.313085 0.992377
4
 1 0.317377 0.317377 0.988563
4
 1 0.337099 0.337099 0.955181
4
 1 0.343019 0.343019 0.9545
4
 1 0.340879 0.340879 0.953574
4
 1 0.341375 0.341375 0.957609
4
 1 0.338043 0.338043 0.9589
4
 1 0.334965 0.334965 0.95908
4
 1 0.338937 0.338937 0.952578
4
 1 0.330809 0.330809 0.955613
4
 1 0.335427 0.335427 0.951762
4
 1 0.339288 0.339288 0.950267
4
 1 0.333057 0.333057 0.958079
4
 1 0.331354 0.331354 0.957292
4
 1 0.34489 0.34489 0.951899
4
 1 0.351992 0.351992 0.950687
4
 1 0.349137 0.349137 0.950155
4
 1 0.348488 0.348488 0.954319
4
 1 0.345391 0.345391 0.955926
4
 1 0.346959 0.346959 0.949234
4
 1 0.347042 0.347042 0.947179
4
 1 0.343092 0.343092 0.948668
4
 0.968128 0.267772 0.267772 1
4
 0.970301 0.268583 0.268583 1
4
 0.968274 0.269899 0.269899 1
4
 0.971719 0.273974 0.273974 1
4
 0.976854 0.277128 0.277128 1
4
 0.973826 0.272201 0.272201 1
4
 0.961667 0.25587 0.25587 1
4
 0.965883 0.260349 0.260349 1
4
 0.96523 0.256037 0.256037 1
4
 0.95908 0.251339 0.251339 1
4
 0.961916 0.252745 0.252745 1
4
 0.967399 0.259685 0.259685 1
4
 0.961633 0.258939 0.258939 1
4
 0.963792 0.259723 0.259723 1
4
 0.957004 0.250735 0.250735 1
4
 0.955182 0.250955 0.250955 1
4
 0.95697 0.253743 0.253743 1
4
 0.965849 0.263472 0.263472 1
4
 0.963831 0.264763 0.264763 1
4
 0.959624 0.259629 0.259629 1
4
 0.969536 0.263596 0.263596 1
4
 0.971534 0.26783 0.26783 1
4
 1 0.348022 0.348022 0.967388
4
 1 0.343428 0.343428 0.969598
4
 1 0.340536 0.340536 0.972502
4
 1 0.340771 0.340771 0.975231
4
 1 0.345937 0.345937 0.966269
4
 1 0.3481 0.3481 0.963384
4
 1 0.352783 0.352783 0.95986
4
 1 0.343506 0.343506 0.965584
4
 1 0.338757 0.338757 0.967284
4
 1 0.338496 0.338496 0.971377
4
 1 0.336836 0.336836 0.970109
4
 1 0.323136 0.323136 0.960306
4
 1 0.322523 0.322523 0.958801
4
 1 0.323996 0.323996 0.955867
4
 1 0.327547 0.327547 0.954437
4
 1 0.331053 0.331053 0.953188
4
 1 0.327034 0.327034 0.958727
4
 1 0.319205 0.319205 0.962068
4
 1 0.320178 0.320178 0.965633
4
 1 0.323669 0.323669 0.961994
4
 1 0.31688 0.31688 0.967007
4
 1 0.314982 0.314982 0.965889
4
 1 0.320054 0.320054 0.957621
4
 1 0.315475 0.315475 0.961567
4
 1 0.314384 0.314384 0.964375
4
 1 0.286366 0.286366 0.99258
4
 1 0.287059 0.287059 0.990134
4
 1 0.28302 0.28302 0.992063
4
 1 0.282981 0.282981 0.996782
4
 1 0.278996 0.278996 0.996747
4
 1 0.280231 0.280231 0.998424
4
 1 0.294186 0.294186 0.986806
4
 1 0.294898 0.294898 0.984374
4
 1 0.302309 0.302309 0.981175
4
 1 0.296828 0.296828 0.987099
4
 1 0.300519 0.300519 0.984224
4
 1 0.299655 0.299655 0.979821
4
 1 0.302774 0.302774 0.978429
4
 1 0.290436 0.290436 0.988395
4
 1 0.289363 0.289363 0.993431
4
 1 0.292336 0.292336 0.99113
4
 1 0.28631 0.28631 0.995031
4
 1 0.287043 0.287043 0.98788
4
 1 0.313417 0.313417 0.980802
4
 1 0.31048 0.31048 0.984769
4
 1 0.312022 0.312022 0.978862
4
 1 0.308556 0.308556 0.984108
4
 1 0.316777 0.316777 0.981459
4
 1 0.313808 0.313808 0.98543
4
 1 0.320839 0.320839 0.979296
4
 1 0.317303 0.317303 0.985133
4
 1 0.318105 0.318105 0.9797
4
 1 0.313199 0.313199 0.983591
4
 1 0.317488 0.317488 0.977872
4
 1 0.307058 0.307058 0.99064
4
 1 0.308342 0.308342 0.986907
4
 1 0.309478 0.309478 0.991083
4
 1 0.31372 0.31372 0.987273
4
 1 0.294669 0.294669 0.968106
4
 1 0.301817 0.301817 0.963014
4
 1 0.297987 0.297987 0.966766
4
 1 0.294439 0.294439 0.970279
4
 1 0.287691 0.287691 0.973224
4
 1 0.289595 0.289595 0.974569
4
 1 0.293334 0.293334 0.973002
4
 1 0.301581 0.301581 0.965176
4
 1 0.30948 0.30948 0.959704
4
 1 0.305219 0.305219 0.963588
4
 1 0.301345 0.301345 0.967342
4
 1 0.296636 0.296636 0.971656
4
 1 0.354105 0.354105 0.948025
4
 1 0.357786 0.357786 0.944805
4
 1 0.359969 0.359969 0.944592
4
 1 0.353446 0.353446 0.952179
4
 1 0.356006 0.356006 0.952106
4
 1 0.354884 0.354884 0.944277
4
 1 0.351316 0.351316 0.945444
4
 1 0.360761 0.360761 0.940858
4
 1 0.354968 0.354968 0.942233
4
 0.974748 0.290327 0.290327 1
4
 0.969444 0.287537 0.287537 1
4
 0.972272 0.286176 0.286176 1
4
 0.966729 0.284388 0.284388 1
4
 0.974677 0.293393 0.293393 1
4
 0.980925 0.294914 0.294914 1
4
 0.975293 0.288134 0.288134 1
4
 0.979677 0.291823 0.291823 1
4
 0.977705 0.295399 0.295399 1
4
 0.980486 0.297106 0.297106 1
4
 0.982832 0.29442 0.29442 1
4
 0.985812 0.297571 0.297571 1
4
 0.983643 0.299749 0.299749 1
4
 0.98622 0.300921 0.300921 1
4
 0.964456 0.283581 0.283581 1
4
 0.968504 0.289705 0.289705 1
4
 1 0.331847 0.331847 0.99869
4
 0.998021 0.325507 0.325507 1
4
 1 0.329903 0.329903 0.99843
4
 1 0.334311 0.334311 0.994184
4
 1 0.338225 0.338225 0.990177
4
 1 0.328574 0.328574 0.997461
4
 1 0.332417 0.332417 0.991476
4
 1 0.336243 0.336243 0.989919
4
 0.970583 0.258108 0.258108 1
4
 0.967214 0.254427 0.254427 1
4
 0.96339 0.252302 0.252302 1
4
 0.968882 0.259231 0.259231 1
4
 0.971492 0.260405 0.260405 1
4
 0.975237 0.259741 0.259741 1
4
 0.971852 0.256036 0.256036 1
4
 0.98072 0.263758 0.263758 1
4
 0.97929 0.260879 0.260879 1
4
 0.957252 0.247673 0.247673 1
4
 0.952613 0.246511 0.246511 1
4
 0.950229 0.243332 0.243332 1
4
 0.97109 0.256934 0.256934 1
4
 0.975385 0.262971 0.262971 1
4
 0.979952 0.264683 0.264683 1
4
 0.978196 0.264867 0.264867 1
4
 0.963893 0.251155 0.251155 1
4
 1 0.31751 0.31751 0.956335
4
 1 0.309237 0.309237 0.961859
4
 1 0.312968 0.312968 0.960276
4
 1 0.325038 0.325038 0.953262
4
 1 0.316915 0.316915 0.958625
4
 0.951586 0.252314 0.252314 1
4
 0.949203 0.247403 0.247403 1
4
 0.945803 0.245007 0.245007 1
4
 0.95098 0.250152 0.250152 1
4
 0.948107 0.250828 0.250828 1
4
 0.942909 0.243147 0.243147 1
4
 0.967407 0.270895 0.270895 1
4
 0.959769 0.261692 0.261692 1
4
 0.959591 0.263329 0.263329 1
4
 0.961782 0.266866 0.266866 1
4
 0.965205 0.270895 0.270895 1
4
 0.975979 0.278151 0.278151 1
4
 0.974049 0.279462 0.279462 1
4
 0.971068 0.276725 0.276725 1
4
 0.9766 0.280555 0.280555 1
4
 0.967698 0.274605 0.274605 1
4
 0.955402 0.258223 0.258223 1
4
 0.954971 0.254419 0.254419 1
4
 0.952086 0.255107 0.255107 1
4
 0.957406 0.263329 0.263329 1
4
 0.953121 0.26 0.26 1
4
 0.951909 0.256703 0.256703 1
4
 0.962072 0.270521 0.270521 1
4
 0.958161 0.267715 0.267715 1
4
 0.955298 0.263493 0.263493 1
4
 0.973675 0.264115 0.264115 1
4
 0.974878 0.267127 0.267127 1
4
 0.973059 0.267147 0.267147 1
4
 0.978095 0.276351 0.276351 1
4
 0.981648 0.280073 0.280073 1
4
 0.981761 0.283784 0.283784 1
4
 0.983855 0.285965 0.285965 1
4
 0.985878 0.2848 0.2848 1
4
 0.977505 0.268337 0.268337 1
4
 0.979112 0.267224 0.267224 1
4
 0.976886 0.271418 0.271418 1
4
 0.980435 0.275074 0.275074 1
4
 0.980322 0.270271 0.270271 1
4
 0.981717 0.273473 0.273473 1
4
 0.978606 0.275094 0.275094 1
4
 0.983445 0.277177 0.277177 1
4
 0.986393 0.283504 0.283504 1
4
 0.985065 0.280359 0.280359 1
4
 0.991415 0.280961 0.280961 1
4
 0.987455 0.272705 0.272705 1
4
 0.993232 0.280541 0.280541 1
4
 0.991413 0.276621 0.276621 1
4
 0.985686 0.272895 0.272895 1
4
 0.987088 0.276128 0.276128 1
4
 0.995203 0.284871 0.284871 1
4
 0.996433 0.288119 0.288119 1
4
 0.995765 0.290366 0.290366 1
4
 0.989047 0.280389 0.280389 1
4
 0.992012 0.286789 0.286789 1
4
 0.990677 0.283607 0.283607 1
4
 0.984025 0.265843 0.265843 1
4
 0.989412 0.272635 0.272635 1
4
 0.987562 0.268443 0.268443 1
4
 0.983696 0.268963 0.268963 1
4
 0.986122 0.265513 0.265513 1
4
 0.975035 0.284013 0.284013 1
4
 0.974269 0.281231 0.281231 1
4
 0.979819 0.285123 0.285123 1
4
 0.979419 0.28765 0.28765 1
4
 0.972051 0.281231 0.281231 1
4
 0.977189 0.28765 0.28765 1
4
 0.968678 0.279076 0.279076 1
4
 0.96839 0.280873 0.280873 1
4
 0.96727 0.282239 0.282239 1
4
 0.967917 0.276342 0.276342 1
4
 0.981984 0.288774 0.288774 1
4
 0.984482 0.288437 0.288437 1
4
 0.984559 0.294452 0.294452 1
4
 0.984079 0.290993 0.290993 1
4
 1 0.347784 0.347784 0.959253
4
 1 0.346818 0.346818 0.957427
4
 1 0.352462 0.352462 0.955744
4
 1 0.340875 0.340875 0.964396
4
 1 0.344693 0.344693 0.960869
4
 1 0.350303 0.350303 0.95918
4
 1 0.339928 0.339928 0.96256
4
 1 0.334257 0.334257 0.968915
4
 1 0.332504 0.332504 0.967252
4
 1 0.33661 0.33661 0.963858
4
 1 0.34038 0.34038 0.960333
4
 0.960636 0.271381 0.271381 1
4
 0.964271 0.275991 0.275991 1
4
 0.96035 0.273128 0.273128 1
4
 0.952449 0.265761 0.265761 1
4
 0.956052 0.269675 0.269675 1
4
 0.953872 0.26433 0.26433 1
4
 0.95967 0.274256 0.274256 1
4
 0.962869 0.279118 0.279118 1
4
 0.951774 0.266858 0.266858 1
4
 0.951419 0.26841 0.26841 1
4
 0.946806 0.263024 0.263024 1
4
 0.946415 0.260096 0.260096 1
4
 0.949604 0.26157 0.26157 1
4
 0.955019 0.272363 0.272363 1
4
 0.95856 0.275589 0.275589 1
4
 0.958203 0.277192 0.277192 1
4
 0.950034 0.26845 0.26845 1
4
 0.952775 0.274017 0.274017 1
4
 0.955379 0.277496 0.277496 1
4
 0.965792 0.286532 0.286532 1
4
 0.958921 0.280783 0.280783 1
4
 0.961973 0.283509 0.283509 1
4
 0.940984 0.256958 0.256958 1
4
 0.945924 0.265384 0.265384 1
4
 0.942182 0.260258 0.260258 1
4
 0.945037 0.260134 0.260134 1
4
 0.948155 0.268518 0.268518 1
4
 1 0.330869 0.330869 0.976951
4
 1 0.333999 0.333999 0.973014
4
 1 0.335877 0.335877 0.977021
4
 1 0.331957 0.331957 0.978448
4
 1 0.329246 0.329246 0.975675
4
 1 0.32524 0.32524 0.977465
4
 1 0.327233 0.327233 0.981123
4
 1 0.321656 0.321656 0.983292
4
 1 0.328317 0.328317 0.973527
4
 1 0.330618 0.330618 0.970076
4
 1 0.326596 0.326596 0.971856
4
 1 0.323055 0.323055 0.973312
4
 1 0.320748 0.320748 0.981127
4
 1 0.321559 0.321559 0.975716
4
 1 0.332119 0.332119 0.950591
4
 1 0.347401 0.347401 0.944881
4
 1 0.339539 0.339539 0.947855
4
 1 0.286143 0.286143 0.976175
4
 1 0.282816 0.282816 0.977893
4
 1 0.284688 0.284688 0.979245
4
 1 0.283632 0.283632 0.982287
4
 1 0.291756 0.291756 0.975953
4
 1 0.280334 0.280334 0.984016
4
 1 0.308659 0.308659 0.964162
4
 1 0.300214 0.300214 0.970057
4
 1 0.304001 0.304001 0.968389
4
 1 0.307668 0.307668 0.966796
4
 1 0.311302 0.311302 0.965386
4
 0.9952 0.280469 0.280469 1
4
 0.998259 0.287689 0.287689 1
4
 1 0.287136 0.287136 0.999502
4
 0.99889 0.283792 0.283792 1
4
 0.997061 0.279826 0.279826 1
4
 0.995421 0.27665 0.27665 1
4
 0.991521 0.272297 0.272297 1
4
 1 0.294135 0.294135 0.998788
4
 1 0.290052 0.290052 0.998268
4
 1 0.293033 0.293033 0.995956
4
 1 0.295725 0.295725 0.995768
4
 0.998822 0.293238 0.293238 1
4
 1 0.298791 0.298791 0.994056
4
 1 0.300516 0.300516 0.995393
4
 1 0.296627 0.296627 0.999458
4
 1 0.336309 0.336309 0.987481
4
 1 0.33429 0.33429 0.984388
4
 1 0.330865 0.330865 0.988038
4
 1 0.332665 0.332665 0.983396
4
 1 0.332186 0.332186 0.981194
4
 1 0.328782 0.328782 0.984832
4
 1 0.309633 0.309633 0.977657
4
 1 0.316929 0.316929 0.971716
4
 1 0.317545 0.317545 0.973533
4
 1 0.313664 0.313664 0.973099
4
 1 0.309874 0.309874 0.980987
4
 1 0.316075 0.316075 0.975938
4
 1 0.304144 0.304144 0.982605
4
 1 0.306426 0.306426 0.976819
4
 1 0.30994 0.30994 0.974994
4
 1 0.306194 0.306194 0.982897
4
 1 0.332946 0.332946 0.965013
4
 1 0.329915 0.329915 0.965195
4
 1 0.32532 0.32532 0.969861
4
 1 0.333989 0.333989 0.961809
4
 1 0.325705 0.325705 0.964837
4
 1 0.329256 0.329256 0.9612
4
 1 0.326338 0.326338 0.966641
4
 1 0.32404 0.32404 0.964045
4
 1 0.321169 0.321169 0.969501
4
 1 0.317243 0.317243 0.969069
4
 1 0.320303 0.320303 0.973713
4
 1 0.277886 0.277886 0.990474
4
 1 0.281143 0.281143 0.988438
4
 1 0.279725 0.279725 0.991843
4
 1 0.275748 0.275748 0.996526
4
 1 0.27898 0.27898 0.994478
4
 1 0.291961 0.291961 0.993726
4
 1 0.285943 0.285943 0.997637
4
 1 0.29863 0.29863 0.988537
4
 1 0.297671 0.297671 0.991238
4
 1 0.301373 0.301373 0.988351
4
 1 0.304381 0.304381 0.985951
4
 1 0.302141 0.302141 0.992384
4
 1 0.303404 0.303404 0.988645
4
 0.932124 0.246461 0.246461 1
4
 0.933311 0.249071 0.249071 1
4
 0.934499 0.25171 0.25171 1
4
 0.937753 0.254218 0.254218 1
4
 0.940595 0.254097 0.254097 1
4
 0.92889 0.244572 0.244572 1
4
 0.931256 0.249781 0.249781 1
4
 0.942676 0.262555 0.262555 1
4
 0.943595 0.265859 0.265859 1
4
 0.946068 0.269883 0.269883 1
4
 0.948653 0.270889 0.270889 1
4
 0.936078 0.261277 0.261277 1
4
 0.933699 0.255259 0.255259 1
4
 0.93695 0.257803 0.257803 1
4
 0.937863 0.261048 0.261048 1
4
 0.938987 0.264237 0.264237 1
4
 0.939059 0.267357 0.267357 1
4
 0.941448 0.268236 0.268236 1
4
 0.935689 0.254943 0.254943 1
4
 0.939862 0.260724 0.260724 1
4
 0.943244 0.268001 0.268001 1
4
 1 0.303735 0.303735 0.975471
4
 1 0.301814 0.301814 0.973943
4
 1 0.304955 0.304955 0.972559
4
 1 0.310416 0.310416 0.972265
4
 1 0.308556 0.308556 0.97114
4
 1 0.299251 0.299251 0.972708
4
 1 0.306604 0.306604 0.969619
4
 1 0.312094 0.312094 0.969326
4
 0.947394 0.244337 0.244337 1
4
 0.95258 0.249468 0.249468 1
4
 0.948421 0.243546 0.243546 1
4
 0.940548 0.238415 0.238415 1
4
 0.945024 0.241186 0.241186 1
4
 0.941112 0.240134 0.240134 1
4
 0.941567 0.237643 0.237643 1
4
 0.93767 0.236606 0.236606 1
4
 0.97163 0.3049 0.3049 1
4
 0.969963 0.305981 0.305981 1
4
 0.972614 0.310555 0.310555 1
4
 0.968693 0.302343 0.302343 1
4
 0.972937 0.302883 0.302883 1
4
 0.97239 0.300474 0.300474 1
4
 0.967388 0.298324 0.298324 1
4
 0.968545 0.297303 0.297303 1
4
 0.962991 0.300322 0.300322 1
4
 0.969674 0.307951 0.307951 1
4
 0.963493 0.298956 0.298956 1
4
 0.965804 0.304945 0.304945 1
4
 0.965728 0.299381 0.299381 1
4
 0.959469 0.29591 0.29591 1
4
 0.961769 0.301838 0.301838 1
4
 0.955783 0.294693 0.294693 1
4
 0.958109 0.299023 0.299023 1
4
 0.955781 0.292083 0.292083 1
4
 0.968444 0.309504 0.309504 1
4
 0.95628 0.290755 0.290755 1
4
 0.962196 0.294983 0.294983 1
4
 0.95882 0.291009 0.291009 1
4
 0.960908 0.303626 0.303626 1
4
 0.954927 0.29644 0.29644 1
4
 0.950297 0.291138 0.291138 1
4
 0.949054 0.287677 0.287677 1
4
 0.952607 0.28956 0.28956 1
4
 0.952611 0.295415 0.295415 1
4
 0.954251 0.298991 0.298991 1
4
 0.946751 0.286682 0.286682 1
4
 0.949625 0.293643 0.293643 1
4
 0.949052 0.285128 0.285128 1
4
 0.943851 0.279488 0.279488 1
4
 0.950293 0.28347 0.28347 1
4
 0.955136 0.287246 0.287246 1
4
 0.945084 0.277862 0.277862 1
4
 0.949226 0.279599 0.279599 1
4
 0.941557 0.273002 0.273002 1
4
 0.946321 0.277477 0.277477 1
4
 0.978772 0.305789 0.305789 1
4
 0.974974 0.302077 0.302077 1
4
 0.979831 0.302771 0.302771 1
4
 0.982618 0.30452 0.30452 1
4
 0.978222 0.303357 0.303357 1
4
 0.94783 0.258696 0.258696 1
4
 0.949813 0.256863 0.256863 1
4
 0.987063 0.294108 0.294108 1
4
 0.987953 0.300953 0.300953 1
4
 0.98861 0.289469 0.289469 1
4
 1 0.305156 0.305156 0.989975
4
 1 0.30628 0.30628 0.994163
4
 1 0.299953 0.299953 0.997777
4
 1 0.312925 0.312925 0.990784
4
 0.980415 0.300242 0.300242 1
4
 0.976029 0.299096 0.299096 1
4
 0.973732 0.295605 0.295605 1
4
 0.985779 0.303157 0.303157 1
4
 0.972133 0.296177 0.296177 1
4
 0.970573 0.296512 0.296512 1
4
 0.966011 0.289631 0.289631 1
4
 0.968289 0.293052 0.293052 1
4
 0.997726 0.272763 0.272763 1
4
 0.996051 0.273511 0.273511 1
4
 0.992148 0.269207 0.269207 1
4
 0.999111 0.279927 0.279927 1
4
 0.999146 0.275995 0.275995 1
4
 0.99356 0.272396 0.272396 1
4
 0.943316 0.271166 0.271166 1
4
 0.945683 0.274709 0.274709 1
4
 0.9483 0.27307 0.27307 1
4
 0.948089 0.275611 0.275611 1
4
 0.953489 0.277567 0.277567 1
4
 0.950679 0.276638 0.276638 1
4
 0.953277 0.28015 0.28015 1
4
 0.959138 0.28382 0.28382 1
4
 0.956884 0.284276 0.284276 1
4
 0.954063 0.283324 0.283324 1
4
 0.965581 0.294391 0.294391 1
4
 0.961044 0.291423 0.291423 1
4
 0.96446 0.289959 0.289959 1
4
 0.959929 0.287035 0.287035 1
4
 0.962193 0.290425 0.290425 1
4
 0.983331 0.272338 0.272338 1
4
 0.99439 0.291884 0.291884 1
4
 0.986353 0.278728 0.278728 1
4
 0.989309 0.28509 0.28509 1
1
 1

